; benchmark generated from python API
(set-info :status unknown)
(define-funs-rec ( ( T2_13 ((x!1 Int)) Int)
                   ( gould2_13 ((x!1 Int)) Int)
                   ( partial_sum2_13 ((x!1 Int) (x!2 Int)) Int)
                   ( binomial_coeff2_13 ((x!1 Int) (x!2 Int)) Int)
                   ( T2_04 ((x!1 Int)) Int)
                   ( t2_04 ((x!1 Int)) String)
                   ( sub2_04 ((x!1 String) (x!2 String)) String)
                   ( ilog2_2_04 ((x!1 Int)) Int))
                 ( (mod (- ((_ gould2_13 0) x!1) 1) 3)
                   (let ((a!1 (+ (* ((_ partial_sum2_13 0) x!1 0) 2)
                                 (mod ((_ binomial_coeff2_13 0) x!1 (div x!1 2))
                                      2))))
                     (ite (= (mod x!1 2) 0)
                          a!1
                          (* ((_ partial_sum2_13 0) x!1 0) 2)))
                   (let ((a!1 (ite (= (mod ((_ binomial_coeff2_13 0) x!1 x!2) 2)
                                      1)
                                   (+ 1 ((_ partial_sum2_13 0) x!1 (+ x!2 1)))
                                   ((_ partial_sum2_13 0) x!1 (+ x!2 1)))))
                     (ite (> x!2 (div (+ x!1 1) 2)) 0 a!1))
                   (let ((a!1 (div (* ((_ binomial_coeff2_13 0) x!1 (- x!2 1))
                                      (- x!1 (- x!2 1)))
                                   x!2)))
                     (ite (= x!2 0) 1 a!1))
                   (let ((a!1 (str.substr ((_ t2_04 0)
                                            (+ ((_ ilog2_2_04 0) x!1) 1))
                                          x!1
                                          1)))
                     (ite (= a!1 "0") 0 1))
                   (ite (= x!1 0)
                        "0"
                        ((_ sub2_04 0) "" ((_ t2_04 0) (- x!1 1))))
                   (let ((a!1 (str.++ x!1
                                      (ite (= (str.substr x!2 0 1) "0")
                                           "01"
                                           "10")
                                      (str.substr x!2 1 (- (str.len x!2) 1)))))
                     (ite (= (str.len x!2) 0) x!1 a!1))
                   (ite (<= x!1 1) 0 (+ 1 ((_ ilog2_2_04 0) (div x!1 2))))))
(assert
 (forall ((n Int) )(let ((?x383 ((_ T2_13 0) n)))
(let ((?x382 ((_ T2_04 0) n)))
(let (($x406 (= ?x382 ?x383)))
(let (($x381 (>= n 0)))
(=> $x381 $x406))))))
)
(check-sat)
